(set-logic QF_LRA)
(set-option :print-success false)
(declare-const oy Real)
(assert (and (<= (- 0) oy) (<= oy 0)))
(declare-const y0 Real)
(declare-const ey0 Real)
(assert (and (<= (- 0) ey0) (<= ey0 0)))
(declare-const my0 Real)
(assert (= my0 0))
(assert (= (+ y0 oy ey0) my0))
(declare-const y1 Real)
(declare-const ey1 Real)
(assert (and (<= (- 0) ey1) (<= ey1 0)))
(declare-const my1 Real)
(assert (= my1 0))
(assert (= (+ y1 oy ey1) my1))
(declare-const y2 Real)
(declare-const ey2 Real)
(assert (and (<= (- 0) ey2) (<= ey2 0)))
(declare-const my2 Real)
(assert (= my2 0))
(assert (= (+ y2 oy ey2) my2))
(declare-const y3 Real)
(declare-const ey3 Real)
(assert (and (<= (- 0) ey3) (<= ey3 0)))
(declare-const my3 Real)
(assert (= my3 0))
(assert (= (+ y3 oy ey3) my3))
(declare-const y4 Real)
(declare-const ey4 Real)
(assert (and (<= (- 0) ey4) (<= ey4 0)))
(declare-const my4 Real)
(assert (= my4 0))
(assert (= (+ y4 oy ey4) my4))
(declare-const y5 Real)
(declare-const ey5 Real)
(assert (and (<= (- 0) ey5) (<= ey5 0)))
(declare-const my5 Real)
(assert (= my5 0))
(assert (= (+ y5 oy ey5) my5))
(declare-const y6 Real)
(declare-const ey6 Real)
(assert (and (<= (- 0) ey6) (<= ey6 0)))
(declare-const my6 Real)
(assert (= my6 0))
(assert (= (+ y6 oy ey6) my6))
(declare-const y7 Real)
(declare-const ey7 Real)
(assert (and (<= (- 0) ey7) (<= ey7 0)))
(declare-const my7 Real)
(assert (= my7 0))
(assert (= (+ y7 oy ey7) my7))
(declare-const oz Real)
(assert (and (<= (- 0) oz) (<= oz 0)))
(declare-const z0 Real)
(declare-const ez0 Real)
(assert (and (<= (- 0) ez0) (<= ez0 0)))
(declare-const mz0 Real)
(assert (= mz0 2))
(assert (= (+ z0 oz ez0) mz0))
(declare-const z1 Real)
(declare-const ez1 Real)
(assert (and (<= (- 0) ez1) (<= ez1 0)))
(declare-const mz1 Real)
(assert (= mz1 2))
(assert (= (+ z1 oz ez1) mz1))
(declare-const z2 Real)
(declare-const ez2 Real)
(assert (and (<= (- 0) ez2) (<= ez2 0)))
(declare-const mz2 Real)
(assert (= mz2 2))
(assert (= (+ z2 oz ez2) mz2))
(declare-const z3 Real)
(declare-const ez3 Real)
(assert (and (<= (- 0) ez3) (<= ez3 0)))
(declare-const mz3 Real)
(assert (= mz3 2))
(assert (= (+ z3 oz ez3) mz3))
(declare-const z4 Real)
(declare-const ez4 Real)
(assert (and (<= (- 0) ez4) (<= ez4 0)))
(declare-const mz4 Real)
(assert (= mz4 2))
(assert (= (+ z4 oz ez4) mz4))
(declare-const z5 Real)
(declare-const ez5 Real)
(assert (and (<= (- 0) ez5) (<= ez5 0)))
(declare-const mz5 Real)
(assert (= mz5 2))
(assert (= (+ z5 oz ez5) mz5))
(declare-const z6 Real)
(declare-const ez6 Real)
(assert (and (<= (- 0) ez6) (<= ez6 0)))
(declare-const mz6 Real)
(assert (= mz6 2))
(assert (= (+ z6 oz ez6) mz6))
(declare-const z7 Real)
(declare-const ez7 Real)
(assert (and (<= (- 0) ez7) (<= ez7 0)))
(declare-const mz7 Real)
(assert (= mz7 2))
(assert (= (+ z7 oz ez7) mz7))
(declare-const ox Real)
(assert (and (<= (- 0) ox) (<= ox 0)))
(declare-const x0 Real)
(declare-const ex0 Real)
(assert (and (<= (- 0) ex0) (<= ex0 0)))
(declare-const mx0 Real)
(assert (= mx0 3))
(assert (= (+ x0 ox ex0) mx0))
(declare-const x1 Real)
(declare-const ex1 Real)
(assert (and (<= (- 0) ex1) (<= ex1 0)))
(declare-const mx1 Real)
(assert (= mx1 3))
(assert (= (+ x1 ox ex1) mx1))
(declare-const x2 Real)
(declare-const ex2 Real)
(assert (and (<= (- 0) ex2) (<= ex2 0)))
(declare-const mx2 Real)
(assert (= mx2 3))
(assert (= (+ x2 ox ex2) mx2))
(declare-const x3 Real)
(declare-const ex3 Real)
(assert (and (<= (- 0) ex3) (<= ex3 0)))
(declare-const mx3 Real)
(assert (= mx3 3))
(assert (= (+ x3 ox ex3) mx3))
(declare-const x4 Real)
(declare-const ex4 Real)
(assert (and (<= (- 0) ex4) (<= ex4 0)))
(declare-const mx4 Real)
(assert (= mx4 3))
(assert (= (+ x4 ox ex4) mx4))
(declare-const x5 Real)
(declare-const ex5 Real)
(assert (and (<= (- 0) ex5) (<= ex5 0)))
(declare-const mx5 Real)
(assert (= mx5 3))
(assert (= (+ x5 ox ex5) mx5))
(declare-const x6 Real)
(declare-const ex6 Real)
(assert (and (<= (- 0) ex6) (<= ex6 0)))
(declare-const mx6 Real)
(assert (= mx6 3))
(assert (= (+ x6 ox ex6) mx6))
(declare-const x7 Real)
(declare-const ex7 Real)
(assert (and (<= (- 0) ex7) (<= ex7 0)))
(declare-const mx7 Real)
(assert (= mx7 3))
(assert (= (+ x7 ox ex7) mx7))
(declare-const p6 Bool)
(declare-const p14 Bool)
(declare-const p33 Bool)
(declare-const p16 Bool)
(declare-const p20 Bool)
(declare-const p12 Bool)
(declare-const p29 Bool)
(declare-const p19 Bool)
(declare-const p36 Bool)
(declare-const p27 Bool)
(declare-const p25 Bool)
(declare-const p15 Bool)
(declare-const p40 Bool)
(declare-const p5 Bool)
(declare-const p41 Bool)
(declare-const p28 Bool)
(declare-const p23 Bool)
(declare-const p35 Bool)
(declare-const p1 Bool)
(declare-const p34 Bool)
(declare-const p21 Bool)
(declare-const p18 Bool)
(declare-const p9 Bool)
(declare-const p31 Bool)
(declare-const p30 Bool)
(declare-const p24 Bool)
(declare-const p7 Bool)
(declare-const p2 Bool)
(declare-const p13 Bool)
(declare-const p26 Bool)
(declare-const p32 Bool)
(declare-const p11 Bool)
(declare-const p8 Bool)
(declare-const p17 Bool)
(declare-const p22 Bool)
(declare-const p4 Bool)
(declare-const p3 Bool)
(declare-const p38 Bool)
(declare-const p37 Bool)
(declare-const p10 Bool)
(declare-const p39 Bool)
(assert (and (or (not p6) p4) (or (not p6) p5) (or p6 (not p4) (not p5)) (or (not p10) p7) (or (not p10) p8) (or (not p10) p9) (or p10 (not p7) (not p8) (not p9)) (or (not p6) p11) (or (not p10) p11) (or (not p11) p6 p10) (or (not p12) p1) (or (not p12) p2) (or (not p12) p3) (or (not p12) p11) (or p12 (not p1) (not p2) (not p3) (not p11)) (or (not p19) p17) (or (not p19) p18) (or p19 (not p17) (not p18)) (or (not p23) p20) (or (not p23) p21) (or (not p23) p22) (or p23 (not p20) (not p21) (not p22)) (or (not p19) p24) (or (not p23) p24) (or (not p24) p19 p23) (or (not p25) p13) (or (not p25) p14) (or (not p25) p15) (or (not p25) p16) (or (not p25) p24) (or p25 (not p13) (not p14) (not p15) (not p16) (not p24)) (or (not p33) p31) (or (not p33) p32) (or p33 (not p31) (not p32)) (or (not p37) p34) (or (not p37) p35) (or (not p37) p36) (or p37 (not p34) (not p35) (not p36)) (or (not p33) p38) (or (not p37) p38) (or (not p38) p33 p37) (or (not p39) p26) (or (not p39) p27) (or (not p39) p28) (or (not p39) p29) (or (not p39) p30) (or (not p39) p38) (or p39 (not p26) (not p27) (not p28) (not p29) (not p30) (not p38)) (or (not p12) p40) (or (not p25) p40) (or (not p39) p40) (or (not p40) p12 p25 p39) (or p41 p40) (or (not p41) (not p40)) (or p41) (not (or (and (>= x0 3) (>= x1 3) (>= x2 3) (or (and (>= z3 2) (>= y4 5)) (and (>= z3 2) (>= z4 2) (>= y5 5)))) (and (>= x0 3) (>= x1 3) (>= x2 3) (>= x3 3) (or (and (>= z4 2) (>= y5 5)) (and (>= z4 2) (>= z5 2) (>= y6 5)))) (and (>= x0 3) (>= x1 3) (>= x2 3) (>= x3 3) (>= x4 3) (or (and (>= z5 2) (>= y6 5)) (and (>= z5 2) (>= z6 2) (>= y7 5))))))))
(check-sat)
